c SAT Generator for power-law distributed variable frequencies
c -g u -v 20 -c 91 -k 3 -p 2.750000 -b 3.200000 -f /home/schmidt/Devel/ni-kop-sat/data/ensemble/ruf20-91/ruf20-91-935 -u 1 -U 1 -s 1428909064
p cnf 20 91
-1 -11 16 0
3 -9 -20 0
-10 -11 -17 0
-4 -5 19 0
-1 5 11 0
-8 -19 20 0
-4 -7 11 0
-8 -10 11 0
-1 -7 -14 0
-9 11 13 0
9 -13 -19 0
15 -17 20 0
2 -13 -18 0
-12 -13 -19 0
-5 -6 19 0
7 8 -15 0
-9 -13 18 0
3 -11 20 0
-5 -6 15 0
3 -7 20 0
-6 -8 20 0
-1 6 10 0
-6 7 -13 0
2 -4 -10 0
-13 -16 19 0
2 9 10 0
-8 9 14 0
13 -16 -17 0
-4 -6 -12 0
10 15 -17 0
-1 -9 20 0
-12 -15 -18 0
3 10 15 0
11 13 15 0
-8 9 18 0
-11 -19 20 0
-6 -16 20 0
8 -13 17 0
15 -17 -19 0
13 -16 18 0
2 10 -13 0
-1 19 -20 0
-1 12 20 0
9 -12 -16 0
-12 -16 -18 0
9 10 -15 0
-2 -4 -19 0
2 12 17 0
4 -5 -11 0
8 10 -12 0
2 4 -16 0
-7 10 -11 0
-8 18 -19 0
8 -12 -15 0
-1 -5 -8 0
1 -4 -9 0
-10 11 -17 0
-2 -5 -9 0
-6 -9 18 0
7 -8 -20 0
-1 9 -15 0
-10 11 19 0
-9 -10 19 0
-7 12 19 0
7 12 -18 0
12 15 -17 0
-6 9 18 0
11 -13 -18 0
9 -13 -18 0
-2 -8 15 0
-6 15 16 0
12 16 17 0
2 3 -9 0
-3 -11 -16 0
-9 15 -17 0
2 -6 -18 0
-1 -14 -19 0
9 18 19 0
-9 16 20 0
-17 19 20 0
11 17 18 0
-4 7 8 0
1 -6 13 0
7 12 -16 0
-11 16 19 0
-4 11 -20 0
-5 7 18 0
-3 7 11 0
10 14 17 0
-4 6 12 0
1 -11 -16 0
